Geographic Exponential Decay
80 145 77 109 67 233 114 224 160 55 196 253 236 96 262 56 46 58 170 131 311 44 92 149 51 99 148 104 207 72 179 79 98 261 35 130 317 129 146 138 274 105 111 57 66 279 14 38 53 121 162 276 147 103 143 302 176 110 165 1 54 198 213 106 172 208 192 231 282 43 252 243 315 273 9 60 132 20 241 271 117
p edge 320 1298
e 0 117 86.0
e 0 60 27.0
e 1 49 53.0
e 1 264 85.0
e 1 200 90.0
e 1 16 70.0
e 1 204 17.0
e 1 218 32.0
e 1 136 31.0
e 1 90 78.0
e 1 243 31.0
e 1 268 82.0
e 1 198 40.0
e 1 196 32.0
e 1 79 13.0
e 1 84 7.0
e 1 273 99.0
e 1 227 47.0
e 1 185 89.0
e 2 160 66.0
e 2 161 1.0
e 3 97 11.0
e 3 275 13.0
e 3 218 4.0
e 3 300 23.0
e 3 143 93.0
e 4 198 82.0
e 4 301 5.0
e 5 166 1.0
e 6 207 12.0
e 7 297 10.0
e 8 2 15.0
e 8 187 9.0
e 8 254 16.0
e 8 99 34.0
e 8 198 84.0
e 9 37 91.0
e 9 157 20.0
e 9 36 25.0
e 9 132 86.0
e 9 34 38.0
e 9 297 46.0
e 9 75 19.0
e 9 138 55.0
e 9 302 53.0
e 9 211 70.0
e 9 270 47.0
e 9 67 75.0
e 9 77 45.0
e 9 309 57.0
e 9 224 3.0
e 9 143 37.0
e 9 176 27.0
e 10 59 12.0
e 10 141 3.0
e 10 248 7.0
e 11 29 1.0
e 12 291 2.0
e 13 102 1.0
e 14 116 49.0
e 14 185 19.0
e 14 290 23.0
e 14 254 71.0
e 14 200 1.0
e 14 305 57.0
e 14 217 98.0
e 14 220 80.0
e 14 47 89.0
e 14 59 59.0
e 14 44 55.0
e 14 46 37.0
e 14 49 74.0
e 14 198 82.0
e 14 23 34.0
e 14 155 14.0
e 14 159 51.0
e 15 57 67.0
e 17 34 1.0
e 17 278 1.0
e 17 135 1.0
e 18 174 22.0
e 19 24 1.0
e 20 9 93.0
e 20 114 91.0
e 20 188 7.0
e 20 313 11.0
e 20 127 59.0
e 20 314 35.0
e 20 110 3.0
e 20 112 30.0
e 20 24 79.0
e 20 95 42.0
e 20 166 22.0
e 20 257 96.0
e 20 185 44.0
e 20 13 5.0
e 20 123 85.0
e 20 104 22.0
e 20 35 49.0
e 21 69 3.0
e 21 278 1.0
e 22 230 3.0
e 22 145 35.0
e 25 80 1.0
e 26 19 1.0
e 27 243 5.0
e 27 215 1.0
e 28 317 77.0
e 30 54 56.0
e 31 89 16.0
e 31 245 6.0
e 31 32 8.0
e 32 160 4.0
e 33 245 6.0
e 33 50 4.0
e 33 248 1.0
e 35 86 40.0
e 35 237 91.0
e 35 76 78.0
e 35 303 38.0
e 35 77 16.0
e 35 204 44.0
e 35 99 51.0
e 35 0 56.0
e 35 119 7.0
e 35 18 26.0
e 35 107 27.0
e 35 63 15.0
e 35 302 50.0
e 35 117 100.0
e 35 235 45.0
e 35 28 8.0
e 36 128 1.0
e 38 256 63.0
e 38 172 3.0
e 38 25 21.0
e 38 21 36.0
e 38 205 19.0
e 38 185 2.0
e 38 44 33.0
e 38 128 3.0
e 38 147 26.0
e 38 285 3.0
e 38 2 81.0
e 38 290 44.0
e 38 53 52.0
e 38 158 98.0
e 38 236 56.0
e 38 301 49.0
e 38 51 42.0
e 39 46 80.0
e 39 247 8.0
e 39 260 8.0
e 40 82 6.0
e 40 0 5.0
e 41 263 4.0
e 42 210 1.0
e 43 196 49.0
e 43 9 9.0
e 43 125 62.0
e 43 240 97.0
e 43 135 94.0
e 43 120 32.0
e 43 269 44.0
e 43 178 42.0
e 43 193 77.0
e 43 298 63.0
e 43 312 51.0
e 43 208 91.0
e 43 229 30.0
e 43 289 60.0
e 43 180 22.0
e 43 44 74.0
e 43 294 71.0
e 44 59 20.0
e 44 101 58.0
e 44 205 40.0
e 44 113 45.0
e 44 267 65.0
e 44 78 86.0
e 44 16 93.0
e 44 89 59.0
e 44 17 17.0
e 44 18 98.0
e 44 281 51.0
e 44 293 76.0
e 44 126 93.0
e 44 108 68.0
e 45 303 34.0
e 45 306 4.0
e 46 138 55.0
e 46 278 81.0
e 46 132 22.0
e 46 287 35.0
e 46 106 69.0
e 46 9 9.0
e 46 24 90.0
e 46 58 87.0
e 46 129 20.0
e 46 80 1.0
e 46 159 68.0
e 46 310 22.0
e 46 139 9.0
e 46 5 87.0
e 46 276 20.0
e 48 80 2.0
e 51 193 67.0
e 51 112 83.0
e 51 266 20.0
e 51 95 48.0
e 51 16 15.0
e 51 195 23.0
e 51 48 2.0
e 51 63 56.0
e 51 252 29.0
e 51 94 100.0
e 51 101 19.0
e 51 308 43.0
e 51 57 7.0
e 51 312 25.0
e 51 281 67.0
e 51 114 77.0
e 52 10 6.0
e 53 266 57.0
e 53 54 5.0
e 53 137 64.0
e 53 69 61.0
e 53 299 33.0
e 53 183 84.0
e 53 312 47.0
e 53 216 89.0
e 53 249 48.0
e 53 83 87.0
e 53 90 25.0
e 53 34 20.0
e 53 300 57.0
e 53 304 10.0
e 53 94 3.0
e 53 164 43.0
e 54 225 60.0
e 54 90 45.0
e 54 162 19.0
e 54 211 2.0
e 54 6 38.0
e 54 13 17.0
e 54 0 14.0
e 54 147 59.0
e 54 169 80.0
e 54 2 69.0
e 54 303 74.0
e 54 42 78.0
e 54 47 88.0
e 54 199 18.0
e 54 284 57.0
e 55 45 76.0
e 55 249 1.0
e 55 204 70.0
e 55 192 18.0
e 55 294 36.0
e 55 148 12.0
e 55 161 53.0
e 55 1 66.0
e 55 21 46.0
e 55 230 77.0
e 55 15 62.0
e 55 57 85.0
e 55 284 37.0
e 55 310 90.0
e 55 278 46.0
e 55 258 60.0
e 55 257 69.0
e 56 82 56.0
e 56 135 31.0
e 56 3 83.0
e 56 172 77.0
e 56 196 20.0
e 56 266 29.0
e 56 298 75.0
e 56 278 100.0
e 56 273 54.0
e 56 165 94.0
e 56 224 61.0
e 56 259 2.0
e 56 38 91.0
e 56 299 95.0
e 56 271 96.0
e 56 232 33.0
e 56 206 46.0
e 57 173 83.0
e 57 79 75.0
e 57 91 50.0
e 57 189 49.0
e 57 313 85.0
e 57 245 87.0
e 57 3 24.0
e 57 137 98.0
e 57 94 2.0
e 57 305 81.0
e 57 307 46.0
e 57 10 51.0
e 57 200 68.0
e 57 208 67.0
e 58 98 25.0
e 58 270 63.0
e 58 277 41.0
e 58 235 66.0
e 58 151 97.0
e 58 10 80.0
e 58 42 1.0
e 58 176 78.0
e 58 56 56.0
e 58 80 47.0
e 58 12 49.0
e 58 179 30.0
e 58 164 65.0
e 58 52 45.0
e 58 291 43.0
e 58 76 9.0
e 60 115 77.0
e 60 169 98.0
e 60 16 83.0
e 60 252 30.0
e 60 76 7.0
e 60 154 59.0
e 60 299 62.0
e 60 44 87.0
e 60 42 51.0
e 60 163 99.0
e 60 229 62.0
e 60 286 52.0
e 60 99 49.0
e 60 184 55.0
e 60 171 40.0
e 60 125 51.0
e 61 208 14.0
e 61 289 2.0
e 62 27 2.0
e 62 290 1.0
e 64 164 12.0
e 64 191 10.0
e 64 59 11.0
e 65 249 1.0
e 66 305 3.0
e 66 302 64.0
e 66 31 91.0
e 66 28 77.0
e 66 166 83.0
e 66 225 69.0
e 66 3 69.0
e 66 170 69.0
e 66 74 20.0
e 66 297 20.0
e 66 246 7.0
e 66 236 65.0
e 66 202 23.0
e 66 157 53.0
e 66 168 54.0
e 66 314 18.0
e 66 300 71.0
e 67 241 67.0
e 67 116 72.0
e 67 265 71.0
e 67 111 64.0
e 67 268 32.0
e 67 140 50.0
e 67 139 85.0
e 67 11 86.0
e 67 235 4.0
e 67 24 64.0
e 67 165 35.0
e 67 286 77.0
e 67 78 22.0
e 67 36 63.0
e 67 72 83.0
e 67 49 19.0
e 68 128 1.0
e 70 257 1.0
e 71 94 3.0
e 71 98 94.0
e 72 34 76.0
e 72 255 100.0
e 72 117 27.0
e 72 106 33.0
e 72 294 83.0
e 72 227 81.0
e 72 195 88.0
e 72 168 97.0
e 72 154 100.0
e 72 277 27.0
e 72 19 66.0
e 72 98 62.0
e 72 275 11.0
e 72 41 75.0
e 72 184 91.0
e 72 187 5.0
e 73 180 5.0
e 73 81 7.0
e 77 79 18.0
e 77 36 82.0
e 77 4 78.0
e 77 49 65.0
e 77 26 27.0
e 77 17 33.0
e 77 21 9.0
e 77 147 94.0
e 77 37 35.0
e 77 137 8.0
e 77 176 88.0
e 77 201 14.0
e 77 5 62.0
e 77 14 61.0
e 77 251 85.0
e 79 194 15.0
e 79 23 21.0
e 79 5 22.0
e 79 36 33.0
e 79 171 75.0
e 79 8 78.0
e 79 172 19.0
e 79 236 65.0
e 79 304 99.0
e 79 104 86.0
e 79 197 21.0
e 79 121 41.0
e 79 90 69.0
e 79 96 27.0
e 81 100 24.0
e 81 214 21.0
e 81 117 82.0
e 81 39 20.0
e 82 159 6.0
e 84 11 9.0
e 84 127 11.0
e 85 66 49.0
e 85 48 1.0
e 87 91 4.0
e 87 261 11.0
e 88 37 1.0
e 89 228 21.0
e 89 296 7.0
e 89 216 24.0
e 92 25 91.0
e 92 113 35.0
e 92 93 20.0
e 92 84 27.0
e 92 130 76.0
e 92 8 97.0
e 92 303 21.0
e 92 136 14.0
e 92 157 98.0
e 92 195 9.0
e 92 258 11.0
e 92 207 2.0
e 92 178 8.0
e 92 239 37.0
e 92 246 64.0
e 92 274 69.0
e 92 242 59.0
e 93 125 17.0
e 93 47 14.0
e 93 101 14.0
e 93 200 3.0
e 96 110 85.0
e 96 157 62.0
e 96 53 4.0
e 96 141 9.0
e 96 156 31.0
e 96 67 86.0
e 96 233 7.0
e 96 56 23.0
e 96 62 30.0
e 96 30 40.0
e 96 26 96.0
e 96 125 78.0
e 96 143 10.0
e 96 22 88.0
e 96 223 79.0
e 96 301 82.0
e 97 302 72.0
e 98 131 46.0
e 98 106 94.0
e 98 138 87.0
e 98 65 3.0
e 98 96 79.0
e 98 56 49.0
e 98 216 13.0
e 98 205 26.0
e 98 120 100.0
e 98 116 1.0
e 98 47 57.0
e 98 201 92.0
e 98 281 9.0
e 98 107 22.0
e 99 222 35.0
e 99 65 49.0
e 99 86 27.0
e 99 215 60.0
e 99 62 15.0
e 99 119 54.0
e 99 72 41.0
e 99 33 78.0
e 99 169 72.0
e 99 158 72.0
e 99 189 44.0
e 99 223 9.0
e 99 249 13.0
e 99 238 45.0
e 103 151 55.0
e 103 6 68.0
e 103 69 24.0
e 103 35 6.0
e 103 20 30.0
e 103 22 69.0
e 103 63 67.0
e 103 78 43.0
e 103 201 22.0
e 103 99 23.0
e 103 17 92.0
e 103 23 16.0
e 103 250 68.0
e 103 109 36.0
e 103 57 14.0
e 103 112 37.0
e 103 200 79.0
e 104 52 63.0
e 104 110 12.0
e 104 209 7.0
e 104 157 69.0
e 104 307 97.0
e 104 111 15.0
e 104 35 51.0
e 104 264 9.0
e 104 258 56.0
e 104 107 9.0
e 104 191 68.0
e 104 291 8.0
e 104 265 17.0
e 104 92 76.0
e 104 195 96.0
e 105 279 86.0
e 105 132 16.0
e 105 286 17.0
e 105 72 14.0
e 105 172 3.0
e 105 255 91.0
e 105 311 91.0
e 105 137 99.0
e 105 214 37.0
e 105 35 8.0
e 105 274 53.0
e 105 215 28.0
e 105 263 100.0
e 105 305 56.0
e 105 28 29.0
e 105 68 17.0
e 105 313 38.0
e 106 27 41.0
e 106 219 33.0
e 106 71 45.0
e 106 187 80.0
e 106 65 74.0
e 106 192 90.0
e 106 189 39.0
e 106 105 30.0
e 106 48 99.0
e 106 307 45.0
e 106 6 91.0
e 106 296 67.0
e 106 188 12.0
e 106 242 93.0
e 108 292 5.0
e 109 196 50.0
e 109 276 47.0
e 109 226 97.0
e 109 166 81.0
e 109 312 9.0
e 109 155 37.0
e 109 237 78.0
e 109 18 73.0
e 109 23 98.0
e 109 208 51.0
e 109 247 5.0
e 109 270 34.0
e 109 204 35.0
e 109 227 71.0
e 109 269 79.0
e 109 43 49.0
e 110 164 11.0
e 110 280 84.0
e 110 92 66.0
e 110 222 99.0
e 110 186 43.0
e 110 254 14.0
e 110 139 74.0
e 110 211 83.0
e 110 76 49.0
e 110 169 31.0
e 110 252 53.0
e 110 314 79.0
e 110 121 97.0
e 110 212 100.0
e 111 38 24.0
e 111 203 27.0
e 111 22 9.0
e 111 13 52.0
e 111 224 17.0
e 111 285 61.0
e 111 202 47.0
e 111 76 98.0
e 111 235 53.0
e 111 43 37.0
e 111 250 85.0
e 111 110 15.0
e 111 317 85.0
e 111 293 87.0
e 111 205 98.0
e 114 181 55.0
e 114 1 17.0
e 114 282 100.0
e 114 170 61.0
e 114 204 25.0
e 114 143 15.0
e 114 128 94.0
e 114 138 33.0
e 114 137 5.0
e 114 77 9.0
e 114 193 26.0
e 114 123 53.0
e 114 310 35.0
e 114 4 20.0
e 114 174 37.0
e 115 257 6.0
e 117 111 82.0
e 117 290 8.0
e 117 219 1.0
e 117 186 34.0
e 117 306 46.0
e 117 206 63.0
e 117 84 68.0
e 117 129 48.0
e 117 226 72.0
e 117 92 48.0
e 117 15 47.0
e 117 85 28.0
e 117 179 24.0
e 118 196 61.0
e 121 252 9.0
e 121 85 10.0
e 121 272 25.0
e 121 118 59.0
e 121 245 81.0
e 121 206 82.0
e 121 187 37.0
e 121 53 42.0
e 121 294 7.0
e 121 288 95.0
e 121 201 6.0
e 121 7 49.0
e 121 184 52.0
e 121 215 61.0
e 121 168 66.0
e 122 307 6.0
e 122 247 23.0
e 122 279 71.0
e 122 212 12.0
e 122 186 11.0
e 124 41 10.0
e 124 160 42.0
e 124 281 5.0
e 129 133 71.0
e 129 300 1.0
e 129 157 61.0
e 129 238 31.0
e 129 283 81.0
e 129 159 43.0
e 129 71 38.0
e 129 258 23.0
e 129 230 56.0
e 129 293 22.0
e 129 202 64.0
e 129 72 7.0
e 129 11 80.0
e 129 308 77.0
e 129 229 55.0
e 130 313 66.0
e 130 117 44.0
e 130 25 68.0
e 130 156 62.0
e 130 284 2.0
e 130 67 43.0
e 130 131 45.0
e 130 192 94.0
e 130 165 82.0
e 130 158 17.0
e 130 142 32.0
e 130 167 22.0
e 130 27 44.0
e 130 4 74.0
e 130 66 60.0
e 130 236 15.0
e 131 199 94.0
e 131 253 66.0
e 131 156 82.0
e 131 234 47.0
e 131 111 61.0
e 131 77 84.0
e 131 7 10.0
e 131 8 23.0
e 131 87 48.0
e 131 248 71.0
e 131 32 2.0
e 131 299 70.0
e 131 242 50.0
e 131 54 14.0
e 131 296 10.0
e 132 60 61.0
e 132 247 50.0
e 132 262 55.0
e 132 202 91.0
e 132 176 23.0
e 132 12 14.0
e 132 154 19.0
e 132 216 14.0
e 132 7 95.0
e 132 104 98.0
e 132 253 46.0
e 132 274 58.0
e 132 19 35.0
e 132 217 86.0
e 134 32 1.0
e 134 259 1.0
e 134 137 11.0
e 138 26 95.0
e 138 102 74.0
e 138 316 8.0
e 138 212 3.0
e 138 88 38.0
e 138 77 4.0
e 138 14 30.0
e 138 91 46.0
e 138 294 3.0
e 138 29 59.0
e 138 172 66.0
e 138 152 90.0
e 138 244 95.0
e 140 185 2.0
e 142 158 1.0
e 143 50 81.0
e 143 1 64.0
e 143 206 13.0
e 143 129 36.0
e 143 165 57.0
e 143 29 4.0
e 143 207 88.0
e 143 75 78.0
e 143 30 90.0
e 143 12 44.0
e 143 294 53.0
e 143 272 12.0
e 143 66 42.0
e 144 50 1.0
e 145 310 23.0
e 145 251 69.0
e 145 43 44.0
e 145 262 33.0
e 145 70 93.0
e 145 142 21.0
e 145 193 24.0
e 145 297 54.0
e 145 197 95.0
e 145 190 68.0
e 145 89 90.0
e 145 282 43.0
e 145 148 97.0
e 145 37 21.0
e 145 227 5.0
e 145 133 20.0
e 146 95 87.0
e 146 20 51.0
e 146 163 43.0
e 146 67 47.0
e 146 160 89.0
e 146 298 45.0
e 146 73 52.0
e 146 220 99.0
e 146 268 43.0
e 146 168 26.0
e 146 123 8.0
e 146 91 69.0
e 146 182 67.0
e 146 170 68.0
e 146 14 70.0
e 146 124 40.0
e 146 68 48.0
e 147 308 98.0
e 147 149 90.0
e 147 207 80.0
e 147 219 66.0
e 147 74 93.0
e 147 267 43.0
e 147 81 38.0
e 147 138 81.0
e 147 286 53.0
e 147 210 7.0
e 147 142 74.0
e 147 280 93.0
e 147 70 84.0
e 147 309 84.0
e 148 123 45.0
e 148 194 20.0
e 148 115 80.0
e 148 60 24.0
e 148 118 2.0
e 148 15 67.0
e 148 309 77.0
e 148 38 68.0
e 148 275 81.0
e 148 262 2.0
e 148 270 62.0
e 148 298 52.0
e 148 313 93.0
e 148 237 85.0
e 148 83 63.0
e 149 150 60.0
e 149 44 65.0
e 149 20 22.0
e 149 114 51.0
e 149 296 97.0
e 149 45 24.0
e 149 190 94.0
e 149 123 21.0
e 149 237 69.0
e 149 55 98.0
e 149 214 16.0
e 149 160 70.0
e 149 119 41.0
e 149 124 32.0
e 149 126 60.0
e 149 57 87.0
e 153 50 1.0
e 160 212 35.0
e 160 53 19.0
e 160 260 92.0
e 160 29 90.0
e 160 30 84.0
e 160 311 34.0
e 160 293 91.0
e 160 39 85.0
e 160 244 26.0
e 160 297 28.0
e 160 201 4.0
e 160 31 91.0
e 162 63 93.0
e 162 31 93.0
e 162 110 80.0
e 162 39 64.0
e 162 84 90.0
e 162 51 92.0
e 162 264 89.0
e 162 55 2.0
e 162 256 8.0
e 162 174 3.0
e 162 297 1.0
e 162 246 12.0
e 162 255 63.0
e 162 309 25.0
e 162 122 47.0
e 162 223 86.0
e 165 155 43.0
e 165 40 88.0
e 165 160 61.0
e 165 153 13.0
e 165 129 1.0
e 165 51 25.0
e 165 110 49.0
e 165 198 72.0
e 165 102 100.0
e 165 217 39.0
e 165 196 28.0
e 165 131 19.0
e 165 173 72.0
e 170 240 57.0
e 170 229 54.0
e 170 174 23.0
e 170 295 6.0
e 170 301 30.0
e 170 208 4.0
e 170 179 85.0
e 170 252 33.0
e 170 129 42.0
e 170 160 96.0
e 170 247 45.0
e 170 32 94.0
e 170 224 35.0
e 170 226 48.0
e 172 213 79.0
e 172 252 51.0
e 172 33 98.0
e 172 108 97.0
e 172 102 23.0
e 172 130 31.0
e 172 298 44.0
e 172 143 81.0
e 172 73 9.0
e 172 288 41.0
e 172 64 75.0
e 172 139 49.0
e 174 241 88.0
e 175 33 12.0
e 176 112 70.0
e 176 160 99.0
e 176 318 69.0
e 176 188 49.0
e 176 265 14.0
e 176 203 38.0
e 176 113 17.0
e 176 40 46.0
e 176 54 34.0
e 176 179 56.0
e 176 41 76.0
e 176 150 79.0
e 176 151 86.0
e 177 202 5.0
e 177 267 11.0
e 177 154 4.0
e 179 93 23.0
e 179 284 96.0
e 179 55 13.0
e 179 57 86.0
e 179 287 100.0
e 179 259 61.0
e 179 188 10.0
e 179 44 47.0
e 179 45 80.0
e 179 243 39.0
e 179 40 13.0
e 179 311 34.0
e 179 130 23.0
e 181 131 38.0
e 182 161 9.0
e 182 213 20.0
e 183 273 4.0
e 192 252 97.0
e 192 314 72.0
e 192 143 59.0
e 192 241 91.0
e 192 167 91.0
e 192 64 86.0
e 192 81 92.0
e 192 68 85.0
e 192 288 4.0
e 192 69 13.0
e 192 282 8.0
e 192 253 26.0
e 192 46 66.0
e 192 124 31.0
e 196 221 45.0
e 196 170 94.0
e 196 114 39.0
e 196 46 14.0
e 196 304 4.0
e 196 242 6.0
e 196 51 23.0
e 196 262 3.0
e 196 126 26.0
e 196 265 4.0
e 196 201 43.0
e 198 70 57.0
e 198 46 86.0
e 198 52 80.0
e 198 78 66.0
e 198 209 91.0
e 198 131 66.0
e 198 217 84.0
e 198 122 7.0
e 198 54 86.0
e 198 64 17.0
e 198 179 27.0
e 198 232 59.0
e 207 250 79.0
e 207 173 81.0
e 207 300 17.0
e 207 163 3.0
e 207 106 22.0
e 207 318 85.0
e 207 241 37.0
e 207 134 91.0
e 207 184 62.0
e 207 58 62.0
e 207 187 13.0
e 207 138 90.0
e 207 59 44.0
e 208 71 98.0
e 208 231 13.0
e 208 62 35.0
e 208 140 21.0
e 208 317 82.0
e 208 288 26.0
e 208 291 93.0
e 208 130 1.0
e 208 228 67.0
e 208 141 18.0
e 208 79 11.0
e 208 96 16.0
e 213 141 87.0
e 213 289 20.0
e 213 208 5.0
e 213 121 21.0
e 213 58 28.0
e 213 85 43.0
e 213 60 50.0
e 213 163 88.0
e 213 86 50.0
e 213 306 34.0
e 213 61 44.0
e 213 100 16.0
e 213 203 31.0
e 213 259 69.0
e 213 164 71.0
e 218 135 7.0
e 219 262 46.0
e 219 306 5.0
e 224 250 5.0
e 224 86 88.0
e 224 190 18.0
e 224 58 18.0
e 224 172 89.0
e 224 151 93.0
e 224 61 68.0
e 224 161 42.0
e 224 287 88.0
e 224 134 33.0
e 224 136 46.0
e 224 73 70.0
e 224 289 40.0
e 231 74 42.0
e 231 200 71.0
e 231 277 66.0
e 231 243 14.0
e 231 132 7.0
e 231 165 87.0
e 231 314 61.0
e 231 87 57.0
e 231 170 81.0
e 231 167 18.0
e 231 61 25.0
e 231 174 3.0
e 231 116 9.0
e 231 230 4.0
e 231 117 32.0
e 231 81 76.0
e 233 88 99.0
e 233 177 87.0
e 233 165 22.0
e 233 112 82.0
e 233 191 6.0
e 233 263 53.0
e 233 171 9.0
e 233 279 38.0
e 233 87 75.0
e 233 213 82.0
e 233 214 1.0
e 233 206 45.0
e 233 126 45.0
e 233 283 35.0
e 233 149 81.0
e 233 74 23.0
e 236 183 55.0
e 236 234 24.0
e 236 219 79.0
e 236 75 48.0
e 236 287 2.0
e 236 140 59.0
e 236 276 86.0
e 236 82 25.0
e 236 283 83.0
e 236 119 12.0
e 236 83 67.0
e 236 88 53.0
e 236 89 95.0
e 241 75 28.0
e 241 176 26.0
e 241 79 5.0
e 241 177 46.0
e 241 191 52.0
e 241 82 51.0
e 241 83 59.0
e 241 304 51.0
e 241 111 71.0
e 241 302 34.0
e 241 186 74.0
e 241 286 66.0
e 241 175 97.0
e 243 176 49.0
e 243 264 95.0
e 243 302 70.0
e 243 89 23.0
e 243 170 59.0
e 243 79 68.0
e 243 140 79.0
e 243 277 78.0
e 243 177 10.0
e 243 82 19.0
e 243 132 28.0
e 243 221 60.0
e 243 315 62.0
e 244 132 19.0
e 252 186 10.0
e 252 133 100.0
e 252 181 19.0
e 252 90 87.0
e 252 161 31.0
e 252 93 5.0
e 252 134 18.0
e 252 292 9.0
e 252 162 22.0
e 252 207 81.0
e 253 93 99.0
e 253 143 22.0
e 253 244 5.0
e 253 127 36.0
e 253 90 92.0
e 253 95 17.0
e 253 108 24.0
e 253 238 72.0
e 253 224 41.0
e 253 189 68.0
e 253 295 76.0
e 253 282 38.0
e 253 218 21.0
e 253 316 23.0
e 261 302 68.0
e 261 151 5.0
e 261 171 81.0
e 261 190 76.0
e 261 96 64.0
e 261 308 41.0
e 261 197 46.0
e 261 244 54.0
e 261 97 1.0
e 261 98 89.0
e 261 205 67.0
e 261 99 17.0
e 261 100 96.0
e 261 311 73.0
e 261 218 36.0
e 261 101 89.0
e 262 271 72.0
e 262 311 48.0
e 262 97 5.0
e 262 98 56.0
e 262 103 94.0
e 262 99 57.0
e 262 272 12.0
e 262 228 63.0
e 262 100 28.0
e 262 192 97.0
e 262 104 21.0
e 262 156 76.0
e 268 97 14.0
e 268 162 60.0
e 271 292 100.0
e 271 98 92.0
e 271 308 26.0
e 271 285 64.0
e 271 148 15.0
e 271 266 60.0
e 271 136 92.0
e 271 103 79.0
e 271 104 91.0
e 271 279 19.0
e 271 234 4.0
e 271 295 15.0
e 271 105 67.0
e 271 133 79.0
e 271 138 97.0
e 273 259 85.0
e 273 298 1.0
e 273 289 32.0
e 273 196 75.0
e 273 103 99.0
e 273 105 17.0
e 273 295 75.0
e 273 106 49.0
e 273 144 75.0
e 273 107 14.0
e 273 285 81.0
e 273 108 4.0
e 273 165 16.0
e 273 109 79.0
e 274 248 16.0
e 274 218 2.0
e 274 285 41.0
e 274 106 65.0
e 274 209 78.0
e 274 219 84.0
e 274 266 80.0
e 274 238 28.0
e 274 220 13.0
e 274 142 58.0
e 274 279 26.0
e 274 302 86.0
e 274 107 38.0
e 274 239 99.0
e 276 113 88.0
e 276 114 39.0
e 276 192 98.0
e 276 203 86.0
e 276 208 45.0
e 276 115 35.0
e 276 116 86.0
e 276 117 34.0
e 276 267 34.0
e 276 118 56.0
e 276 243 26.0
e 276 175 68.0
e 276 269 32.0
e 276 144 26.0
e 279 109 70.0
e 279 115 59.0
e 279 116 78.0
e 279 144 3.0
e 279 119 54.0
e 279 120 32.0
e 279 315 43.0
e 279 121 43.0
e 279 302 43.0
e 279 127 16.0
e 279 145 3.0
e 279 146 25.0
e 280 292 1.0
e 282 175 65.0
e 282 178 15.0
e 282 200 17.0
e 282 109 37.0
e 282 120 92.0
e 282 152 75.0
e 282 121 53.0
e 282 220 2.0
e 282 146 2.0
e 282 122 81.0
e 282 147 44.0
e 282 315 92.0
e 282 183 95.0
e 302 231 90.0
e 302 120 3.0
e 302 246 28.0
e 302 145 40.0
e 302 146 18.0
e 302 197 55.0
e 302 289 68.0
e 302 147 22.0
e 303 145 36.0
e 303 147 18.0
e 303 302 63.0
e 303 148 66.0
e 303 149 40.0
e 311 148 67.0
e 311 149 94.0
e 311 150 91.0
e 311 152 61.0
e 311 153 94.0
e 311 172 61.0
e 311 154 5.0
e 311 155 56.0
e 311 156 33.0
e 311 162 80.0
e 311 209 32.0
e 311 167 93.0
e 315 207 92.0
e 315 311 62.0
e 315 150 72.0
e 315 152 68.0
e 315 153 21.0
e 315 223 93.0
e 315 154 83.0
e 315 156 9.0
e 315 244 34.0
e 315 168 17.0
e 315 172 33.0
e 315 173 54.0
e 315 174 56.0
e 315 226 92.0
e 317 173 36.0
e 317 174 44.0
e 317 224 52.0
e 317 232 49.0
e 317 275 97.0
e 317 176 9.0
e 317 219 13.0
e 317 178 27.0
e 317 182 90.0
e 317 179 90.0
e 317 180 8.0
e 317 181 7.0
e 317 183 31.0
e 317 186 61.0
e 319 316 1.0
